pbesol_GeTe2 from PBEsol__GeSe2_reference
1.0
  6.3037735009 0.0000000000 0.0000000000
  0.0000000000 6.3037735009 0.0000000000
  -0.0000000000 -0.0000000000 9.7933010125
Ge Te
4 8
Direct
  0.0000002232 0.0000008582 0.0000005906
  0.9999982464 0.5000017507 0.2499998697
  0.5000002232 0.5000008582 0.5000005906
  0.4999982464 0.0000017507 0.7499998697
  0.2357781326 0.2500000797 0.1249995975
  0.7499994079 0.2642218059 0.3750002006
  0.2500015084 0.7357776683 0.3749995800
  0.7642224815 0.7499978372 0.1250001616
  0.7357781326 0.7500000797 0.6249995975
  0.2499994079 0.7642218059 0.8750002006
  0.7500015084 0.2357776683 0.8749995800
  0.2642224815 0.2499978372 0.6250001616
