soc_Cu2Se from HSE06__Cu2Se_reference
1.0
  12.1831039963 0.0000200674 0.0000105000
  0.0000147301 12.0765688819 -5.9391765144
  0.0000079480 0.1936592291 15.5675887855
Cu Se
96 48
Direct
  0.4493881568 0.6532156504 0.8397804771
  0.3989784317 0.9462926731 0.1590997826
  0.2965022284 0.7508899499 0.0304812661
  0.0506143469 0.1532150098 0.8397803301
  0.5534515488 0.3209159177 0.6917935160
  0.5983404823 0.7078623400 0.9835293483
  0.8591362383 0.5588184414 0.0577733789
  0.6729465498 0.9900800826 0.5426875318
  0.4141261672 0.7205154167 0.4897702889
  0.7591703582 0.9209715430 0.1344935262
  0.2799285484 0.5789108557 0.2200611568
  0.7331556989 0.2124764920 0.6332294879
  0.2482401986 0.8576844736 0.7818522097
  0.3797778747 0.9446699409 0.5980920367
  0.5614925113 0.8457388227 0.9103409328
  0.8582604243 0.0672511233 0.0686428838
  0.6408721057 0.0588244929 0.0577810483
  0.7120611613 0.3513299114 0.2705155523
  0.0983386709 0.7921388986 0.0164660152
  0.7831765048 0.2212604914 0.4727235493
  0.2637215045 0.9286925208 0.2825449083
  0.9450634392 0.0816976626 0.3931923975
  0.9082850003 0.3340765884 0.7217994115
  0.3961697794 0.6914721355 0.1445747537
  0.5858738153 0.2794845800 0.5102297600
  0.7668435722 0.7124762245 0.6332303532
  0.1408636880 0.4411816707 0.9422267538
  0.2168234824 0.7787394423 0.5272764407
  0.1729444765 0.5099210509 0.4573106145
  0.3802606899 0.1635482616 0.6287889910
  0.7482475151 0.6423059962 0.2181346364
  0.7799280495 0.9210901955 0.7799367914
  0.4385074410 0.1542610723 0.0896590540
  0.7517596958 0.1423155456 0.2181477889
  0.2668443396 0.7875235051 0.3667705475
  0.2362770273 0.4286974127 0.2825467686
  0.5549332306 0.5816963939 0.3931928436
  0.2591738209 0.5790365490 0.8655137239
  0.3791878138 0.4918826829 0.4219431095
  0.1038298809 0.1914442025 0.1445622525
  0.8791878807 0.0081091819 0.5780551806
  0.5506118154 0.3467842907 0.1602194513
  0.7637229814 0.5713024972 0.7174532253
  0.7408261086 0.4209635573 0.1344863552
  0.4130414149 0.0949539349 0.7618102553
  0.2331564461 0.2875236886 0.3667696038
  0.4465484397 0.6790840555 0.3082065188
  0.7965042700 0.7491189258 0.9695261314
  0.9385089571 0.3457415426 0.9103461482
  0.6417424489 0.5672401185 0.0686340159
  0.4016594377 0.2921376219 0.0164706760
  0.6208121610 0.5081173172 0.5780569076
  0.5869585377 0.9050461045 0.2381897660
  0.0858726852 0.2205119917 0.4897684802
  0.7362787344 0.0713073191 0.7174551423
  0.6038303115 0.3085279955 0.8554253350
  0.0917149847 0.6659233697 0.2782005759
  0.0534500705 0.1790848313 0.3082057533
  0.1197425345 0.6635438732 0.6287865458
  0.3591278536 0.9411755820 0.9422189640
  0.8989810309 0.5536943703 0.8408949736
  0.5917162258 0.8340790630 0.7218058130
  0.9016612209 0.2078611667 0.9835340402
  0.9465500145 0.8209150047 0.6917942316
  0.0869799729 0.5949395553 0.7617998519
  0.6010216228 0.0537073820 0.8409002559
  0.6202222379 0.0553300608 0.4019080067
  0.3270536233 0.0099200011 0.4573126051
  0.7168289306 0.7212503939 0.4727178756
  0.7034975387 0.2491099964 0.9695189036
  0.9141273473 0.7794879097 0.5102314872
  0.2034955063 0.2508810990 0.0304736955
  0.2200719971 0.0789097038 0.2200631496
  0.2831710031 0.2787497676 0.5272822005
  0.6197393883 0.8364518405 0.3712111244
  0.4082837117 0.1659209730 0.2781942182
  0.1010189260 0.4463055293 0.1591050018
  0.9493857090 0.8467851279 0.1602197975
  0.2120713499 0.1486752211 0.7294901013
  0.4450667467 0.4183036217 0.6068072202
  0.1202317395 0.4446491156 0.5980862067
  0.8961700402 0.8085558982 0.8554377344
  0.0549366603 0.9183021908 0.6068075961
  0.2517525004 0.3576940859 0.7818655004
  0.2879388028 0.6486700986 0.7294844470
  0.9130201204 0.4050603025 0.2382000681
  0.8270555014 0.4900788678 0.5426894061
  0.2408296205 0.0790284752 0.8655065147
  0.7200714618 0.4210891229 0.7799388802
  0.3582575453 0.4327599894 0.9313660852
  0.1208123393 0.9918908097 0.4219448916
  0.8797683317 0.5553508438 0.4019136766
  0.1417395662 0.9327489042 0.9313571622
  0.8802574091 0.3364562543 0.3712134962
  0.0614910053 0.6542584734 0.0896538842
  0.7879286051 0.8513248498 0.2705099484
  0.5735022702 0.9011329535 0.0744550156
  0.2026112588 0.1381020264 0.5618714641
  0.5574016151 0.1400876313 0.5588598697
  0.0761907761 0.2939439526 0.7907655931
  0.7026086116 0.3619021185 0.4381318844
  0.4238066061 0.7939441702 0.7907637262
  0.7576298367 0.0723749216 0.9403226292
  0.2174633321 0.7356481541 0.1954170234
  0.5665196371 0.9750002979 0.6745448240
  0.5746731650 0.7173191311 0.2056552827
  0.0735016043 0.5988686126 0.9255413250
  0.7273986326 0.5402023411 0.3081649582
  0.4264977559 0.0988670504 0.9255449821
  0.0760734496 0.9893711311 0.2710563634
  0.9334862219 0.4750003283 0.6745423918
  0.0752409591 0.1100424064 0.9704127173
  0.0746705165 0.7826685120 0.7943419449
  0.0840241874 0.8281590412 0.4406243686
  0.4159761085 0.3281536265 0.4406243342
  0.2423701959 0.9276250429 0.0596773694
  0.9238092131 0.7060561254 0.2092344626
  0.2274020094 0.9597985041 0.6918301869
  0.7423749747 0.5723798789 0.9403220121
  0.2825296384 0.2356499734 0.1954170907
  0.9247589101 0.8899575572 0.0295873086
  0.9239267357 0.0106287667 0.7289436842
  0.5760752346 0.5106297918 0.7289438160
  0.0574010297 0.3599117223 0.4411393021
  0.0665138188 0.5249996295 0.3254575970
  0.5840238823 0.6718464069 0.5593757186
  0.4425984349 0.8599123488 0.4411401633
  0.9253294761 0.2173314022 0.2056581741
  0.9264983039 0.4011314265 0.0744587119
  0.9159758509 0.1718409269 0.5593756181
  0.2576250148 0.4276201266 0.0596780339
  0.5752414948 0.3899484886 0.0295814387
  0.4253268691 0.2826809391 0.7943448427
  0.4239247692 0.4893701843 0.2710562135
  0.4334804327 0.0249997881 0.3254552466
  0.4247584313 0.6100516025 0.9704185853
  0.7973888424 0.8618980407 0.4381285981
  0.9425989548 0.6400881570 0.5588606303
  0.7825366912 0.2643517681 0.8045829631
  0.2726013107 0.4597976780 0.6918351031
  0.7174703134 0.7643499568 0.8045828601
  0.2973913411 0.6380978526 0.5618681314
  0.7725980690 0.0402015611 0.3081698372
  0.5761933168 0.2060558570 0.2092362997
