hse_GeTe2 from HSE06__GeSe2_reference
1.0
  7.4615314071 -0.0274471873 0.0000000000
  -0.1894862075 12.9145644305 0.0000000000
  0.0000000000 0.0000000000 17.9504407610
Ge Te
16 32
Direct
  0.6644653347 0.7799365829 0.8447455540
  0.3355346653 0.7200634171 0.3447455540
  0.3355346756 0.2200632848 0.1552544174
  0.6644653244 0.2799367152 0.6552544174
  0.8424219124 0.2239160559 0.8489306181
  0.1575780876 0.2760839441 0.3489306181
  0.1575780787 0.7760839671 0.1510693735
  0.8424219213 0.7239160329 0.6510693735
  0.1671156094 0.2942107708 0.9997540706
  0.8328843906 0.2057892292 0.4997540706
  0.8328845670 0.7057890564 0.0002459227
  0.1671154330 0.7942109436 0.5002459227
  0.3405039993 0.7254820136 0.6888072318
  0.6594960007 0.7745179864 0.1888072318
  0.6594959705 0.2745180003 0.3111927592
  0.3405040295 0.2254819997 0.8111927592
  0.3375077267 0.7923071136 0.8185983122
  0.6624922733 0.7076928864 0.3185983122
  0.6624922895 0.2076928965 0.1814016978
  0.3375077105 0.2923071035 0.6814016978
  0.7225841890 0.8791242781 0.9619287784
  0.2774158110 0.6208757219 0.4619287784
  0.2774157189 0.1208754966 0.0380712511
  0.7225842811 0.3791245034 0.5380712511
  0.7716631576 0.6064355147 0.8837060585
  0.2283368424 0.8935644853 0.3837060585
  0.2283368962 0.3935643746 0.1162938966
  0.7716631038 0.1064356254 0.6162938966
  0.8489410826 0.8649080188 0.7446416898
  0.1510589174 0.6350919812 0.2446416898
  0.1510589603 0.1350919693 0.2553583180
  0.8489410397 0.3649080307 0.7553583180
  0.5888659647 0.6005488151 0.6719418703
  0.4111340353 0.8994511849 0.1719418703
  0.4111340471 0.3994511715 0.3280581548
  0.5888659529 0.1005488285 0.8280581548
  0.0927011136 0.5998664837 0.6624689699
  0.9072988864 0.9001335163 0.1624689699
  0.9072988610 0.4001334884 0.3375310438
  0.0927011390 0.0998665116 0.8375310438
  0.3449601232 0.8762858021 0.6035448671
  0.6550398768 0.6237141979 0.1035448671
  0.6550398278 0.1237142340 0.3964551391
  0.3449601722 0.3762857660 0.8964551391
  0.8395373757 0.8050595857 0.5253613522
  0.1604626243 0.6949404143 0.0253613522
  0.1604624648 0.1949404099 0.4746386529
  0.8395375352 0.3050595901 0.9746386529
