soc_Cu2S from HSE06__Cu2S_reference
1.0
  11.7526196169 0.0000000000 0.0000000000
  0.0000000000 11.7904002600 -5.8170077852
  0.0000000000 0.0140208582 14.8894257537
Cu S
96 48
Direct
  0.4619349844 0.6446695120 0.8279827875
  0.3986258902 0.9586084574 0.1399870416
  0.2956006095 0.7561032006 0.0252948843
  0.0380650156 0.1446695120 0.8279827875
  0.5472150013 0.3249420599 0.6863276865
  0.5873008472 0.7154471127 0.9974678593
  0.8560779532 0.5592585049 0.0531248384
  0.6607577881 0.9929829659 0.5511183681
  0.4211451422 0.7226983819 0.5029159901
  0.7510012377 0.9239338488 0.1406541422
  0.2899788688 0.5709086006 0.2091531651
  0.7356975267 0.2140339850 0.6383611655
  0.2505042159 0.8521570700 0.7720462746
  0.3979197272 0.9478662185 0.6095561537
  0.5767616145 0.8443727342 0.9001642787
  0.8701832653 0.0608480866 0.0699747857
  0.6439220468 0.0592585049 0.0531248384
  0.6983890929 0.3632517387 0.2892978947
  0.0873008472 0.7845528873 0.0025321407
  0.7885379927 0.2290854299 0.4735990530
  0.2634750218 0.9155919275 0.2659487152
  0.9355749533 0.0649618714 0.3893567236
  0.9552700568 0.3275772314 0.7024999174
  0.4123264146 0.6910961165 0.1325699194
  0.5788548578 0.2773016181 0.4970840099
  0.7643024733 0.7140339850 0.6383611655
  0.1439220468 0.4407414951 0.9468751616
  0.2114620073 0.7709145701 0.5264009470
  0.1607577881 0.5070170341 0.4488816319
  0.3887057798 0.1637367532 0.6235190759
  0.7505042159 0.6478429300 0.2279537254
  0.7899788688 0.9290913994 0.7908468349
  0.4232383855 0.1556272658 0.0998357213
  0.7494957841 0.1478429300 0.2279537254
  0.2643024733 0.7859660150 0.3616388345
  0.2365249782 0.4155919275 0.2659487152
  0.5644250467 0.5649618714 0.3893567236
  0.2510012377 0.5760661512 0.8593458578
  0.3764294477 0.4847872151 0.4221027977
  0.0876735854 0.1910961165 0.1325699194
  0.8764294477 0.0152127849 0.5778972023
  0.5380650156 0.3553304880 0.1720172125
  0.7634750218 0.5844080725 0.7340512848
  0.7489987623 0.4239338488 0.1406541422
  0.4371167854 0.1177573505 0.7814187011
  0.2356975267 0.2859660150 0.3616388345
  0.4527849987 0.6750579401 0.3136723135
  0.7956006095 0.7438967994 0.9747051157
  0.9232383855 0.3443727342 0.9001642787
  0.6298167347 0.5608480866 0.0699747857
  0.4126991528 0.2845528873 0.0025321407
  0.6235705523 0.5152127849 0.5778972023
  0.5628832146 0.8822426495 0.2185812989
  0.0788548578 0.2226983819 0.5029159901
  0.7365249782 0.0844080725 0.7340512848
  0.5876735854 0.3089038835 0.8674300806
  0.0447299432 0.6724227686 0.2975000826
  0.0472150013 0.1750579401 0.3136723135
  0.1112942202 0.6637367532 0.6235190759
  0.3560779532 0.9407414951 0.9468751616
  0.8986258902 0.5413915426 0.8600129584
  0.5447299432 0.8275772314 0.7024999174
  0.9126991528 0.2154471127 0.9974678593
  0.9527849987 0.8249420599 0.6863276865
  0.0628832146 0.6177573505 0.7814187011
  0.6013741098 0.0413915426 0.8600129584
  0.6020802728 0.0521337815 0.3904438463
  0.3392422119 0.0070170341 0.4488816319
  0.7114620073 0.7290854299 0.4735990530
  0.7043993905 0.2438967994 0.9747051157
  0.9211451422 0.7773016181 0.4970840099
  0.2043993905 0.2561032006 0.0252948843
  0.2100211312 0.0709086006 0.2091531651
  0.2885379927 0.2709145701 0.5264009470
  0.6112942202 0.8362632468 0.3764809241
  0.4552700568 0.1724227686 0.2975000826
  0.1013741098 0.4586084574 0.1399870416
  0.9619349844 0.8553304880 0.1720172125
  0.1983890929 0.1367482613 0.7107021053
  0.4355749533 0.4350381286 0.6106432764
  0.1020802728 0.4478662185 0.6095561537
  0.9123264146 0.8089038835 0.8674300806
  0.0644250467 0.9350381286 0.6106432764
  0.2494957841 0.3521570700 0.7720462746
  0.3016109071 0.6367482613 0.7107021053
  0.9371167854 0.3822426495 0.2185812989
  0.8392422119 0.4929829659 0.5511183681
  0.2489987623 0.0760661512 0.8593458578
  0.7100211312 0.4290913994 0.7908468349
  0.3701832653 0.4391519134 0.9300252143
  0.1235705523 0.9847872151 0.4221027977
  0.8979197272 0.5521337815 0.3904438463
  0.1298167347 0.9391519134 0.9300252143
  0.8887057798 0.3362632468 0.3764809241
  0.0767616145 0.6556272658 0.0998357213
  0.8016109071 0.8632517387 0.2892978947
  0.5738364945 0.9061106218 0.0675572371
  0.2121336279 0.1319094526 0.5526729689
  0.5652019647 0.1453462480 0.5552005500
  0.0809318525 0.2910063458 0.7969420372
  0.7121336279 0.3680905474 0.4473270311
  0.4190681475 0.7910063458 0.7969420372
  0.7708702765 0.0790388069 0.9483613589
  0.2343904907 0.7251454006 0.1937231734
  0.5729250364 0.9865979027 0.6900703702
  0.5771704332 0.7108780550 0.2111541154
  0.0738364945 0.5938893782 0.9324427629
  0.7372172489 0.5389531229 0.3098944640
  0.4261635055 0.0938893782 0.9324427629
  0.0807978791 0.9916488540 0.2768396426
  0.9270749636 0.4865979027 0.6900703702
  0.0836479079 0.1145999083 0.9600811215
  0.0771704332 0.7891219450 0.7888458846
  0.0899627960 0.8288585457 0.4434744110
  0.4100372040 0.3288585457 0.4434744110
  0.2291297235 0.9209611931 0.0516386411
  0.9190681475 0.7089936542 0.2030579628
  0.2372172489 0.9610468771 0.6901055360
  0.7291297235 0.5790388069 0.9483613589
  0.2656095093 0.2251454006 0.1937231734
  0.9163520921 0.8854000917 0.0399188785
  0.9192021209 0.0083511460 0.7231603574
  0.5807978791 0.5083511460 0.7231603574
  0.0652019647 0.3546537520 0.4447994500
  0.0729250364 0.5134020973 0.3099296298
  0.5899627960 0.6711414543 0.5565255890
  0.4347980353 0.8546537520 0.4447994500
  0.9228295668 0.2108780550 0.2111541154
  0.9261635055 0.4061106218 0.0675572371
  0.9100372040 0.1711414543 0.5565255890
  0.2708702765 0.4209611931 0.0516386411
  0.5836479079 0.3854000917 0.0399188785
  0.4228295668 0.2891219450 0.7888458846
  0.4192021209 0.4916488540 0.2768396426
  0.4270749636 0.0134020973 0.3099296298
  0.4163520921 0.6145999083 0.9600811215
  0.7878663721 0.8680905474 0.4473270311
  0.9347980353 0.6453462480 0.5552005500
  0.7656095093 0.2748545994 0.8062768266
  0.2627827511 0.4610468771 0.6901055360
  0.7343904907 0.7748545994 0.8062768266
  0.2878663721 0.6319094526 0.5526729689
  0.7627827511 0.0389531229 0.3098944640
  0.5809318525 0.2089936542 0.2030579628
