pbe_ZnS from PBEsol__ZnS_reference
1.0
  3.7794670186 -0.0000000000 0.0000000000
  -1.8897335093 3.2731144509 0.0000000000
  -0.0000000000 -0.0000000000 43.2346284355
Zn S
14 14
Direct
  -0.0000000000 0.0000000000 0.1428805767
  0.6666666667 0.3333333333 0.7857357767
  0.6666666667 0.3333333333 0.0714200504
  0.0000000000 -0.0000000000 0.5714395253
  0.3333333333 0.6666666667 0.2142936769
  0.0000000000 -0.0000000000 0.7143233426
  0.6666666667 0.3333333333 0.6428840861
  0.3333333333 0.6666666667 0.3571797659
  0.3333333333 0.6666666667 0.0000466251
  0.0000000000 -0.0000000000 0.4285595853
  0.0000000000 -0.0000000000 0.9285937724
  0.6666666667 0.3333333333 0.2856980584
  0.6666666667 0.3333333333 0.4999721716
  0.3333333333 0.6666666667 0.8571354049
  0.0000000000 -0.0000000000 0.9821906145
  0.0000000000 -0.0000000000 0.1964159882
  0.6666666667 0.3333333333 0.3393242355
  0.6666666667 0.3333333333 0.6964309659
  0.0000000000 -0.0000000000 0.7679048768
  0.3333333333 0.6666666667 0.9106460304
  0.3333333333 0.6666666667 0.2677982804
  0.6666666667 0.3333333333 0.5535441813
  0.3333333333 0.6666666667 0.4107035788
  0.3333333333 0.6666666667 0.0535625800
  0.0000000000 -0.0000000000 0.4820666664
  -0.0000000000 0.0000000000 0.6249882633
  0.6666666667 0.3333333333 0.8392673236
  0.6666666667 0.3333333333 0.1249929964
