pbe_In2S3 from PBEsol__In2S3_reference
1.0
  7.5933522240 -0.0000000000 0.0000079047
  0.0000000000 7.5933515772 0.0000000000
  0.0000336697 -0.0000000000 32.1229727832
In S
32 48
Direct
  -0.0000011512 0.5000005731 0.4205491075
  -0.0000000563 0.9999997513 0.1705486432
  0.5000011512 0.4999994269 0.3294508925
  1.0000000563 0.5000002487 0.0794513568
  0.7322074935 0.5000032631 0.2070635439
  0.0000037766 0.2321993276 0.2929382707
  0.0000035055 0.7678001544 0.2929380619
  0.7322070911 0.9999971528 0.0429368463
  0.2677925065 0.9999967369 0.0429364561
  0.4999964945 0.2321998456 0.4570619381
  0.4999962234 0.7678006724 0.4570617293
  0.2677929089 0.5000028472 0.2070631537
  0.2500000000 -0.0000000000 0.3750000000
  0.5000000000 0.2500000000 0.1250000000
  0.5000000000 0.7500000000 0.1250000000
  0.7500000000 -0.0000000000 0.3750000000
  0.4999988488 0.0000005731 0.9205491075
  0.4999999437 0.4999997513 0.6705486432
  1.0000011512 0.9999994269 0.8294508925
  0.5000000563 0.0000002487 0.5794513568
  0.2322074935 0.0000032631 0.7070635439
  0.5000037766 0.7321993276 0.7929382707
  0.5000035055 0.2678001544 0.7929380619
  0.2322070911 0.4999971528 0.5429368463
  0.7677925065 0.4999967369 0.5429364561
  0.9999964945 0.7321998456 0.9570619381
  0.9999962234 0.2678006724 0.9570617293
  0.7677929089 0.0000028472 0.7070631537
  0.7500000000 0.5000000000 0.8750000000
  -0.0000000000 0.7500000000 0.6250000000
  -0.0000000000 0.2500000000 0.6250000000
  0.2500000000 0.5000000000 0.8750000000
  0.7720290457 0.5000009286 0.2878346353
  0.0000012342 0.2720234179 0.2121669589
  0.0000001382 0.7279767823 0.2121669520
  0.2720260573 0.4999992189 0.4621656313
  0.7279709543 0.4999990714 0.4621653647
  0.9999998618 0.7720232177 0.0378330480
  0.9999987658 0.2279765821 0.0378330411
  0.2279739427 0.5000007811 0.2878343687
  0.2616180956 0.0000003838 0.4529141656
  0.5000000277 0.7616241077 0.0470860287
  0.5000001028 0.2383747969 0.0470855151
  0.7616278652 0.0000007776 0.2970861382
  0.2383819044 0.9999996162 0.2970858344
  0.4999998972 0.2616252031 0.2029144849
  0.4999999723 0.7383758923 0.2029139713
  0.7383721348 0.9999992224 0.4529138618
  0.2566353115 0.5000011400 0.1257090435
  0.4999988108 0.7566382290 0.3757084429
  0.4999991720 0.2433623065 0.3757085007
  0.2566354639 0.9999975801 0.1242905889
  0.7433646885 0.9999988600 0.1242909565
  0.0000008280 0.7566376935 0.3742914993
  0.0000011892 0.2433617710 0.3742915571
  0.7433645361 0.5000024199 0.1257094111
  0.2720290457 0.0000009286 0.7878346353
  0.5000012342 0.7720234179 0.7121669589
  0.5000001382 0.2279767823 0.7121669520
  0.7720260573 0.9999992189 0.9621656313
  0.2279709543 0.9999990714 0.9621653647
  0.4999998618 0.2720232177 0.5378330480
  0.4999987658 0.7279765821 0.5378330411
  0.7279739427 0.0000007811 0.7878343687
  0.7616180956 0.5000003838 0.9529141656
  0.0000000277 0.2616241077 0.5470860287
  0.0000001028 0.7383747969 0.5470855151
  0.2616278652 0.5000007776 0.7970861382
  0.7383819044 0.4999996162 0.7970858344
  0.9999998972 0.7616252031 0.7029144849
  0.9999999723 0.2383758923 0.7029139713
  0.2383721348 0.4999992224 0.9529138618
  0.7566353115 0.0000011400 0.6257090435
  0.9999988108 0.2566382290 0.8757084429
  0.9999991720 0.7433623065 0.8757085007
  0.7566354639 0.4999975801 0.6242905889
  0.2433646885 0.4999988600 0.6242909565
  0.5000008280 0.2566376935 0.8742914993
  0.5000011892 0.7433617710 0.8742915571
  0.2433645361 0.0000024199 0.6257094111
